(set-info :smt-lib-version 2.6)
(set-logic LRA)
(set-info :source |
   Monniaux, David; Quantifier Elimination by Lazy Model Enumeration, CAV 2010
|)
(set-info :category "random")
; ./Mjollnir_examples/B1/formula_255.m
(set-info :status sat)
(assert
 (forall ((|v9:0| Real) )(exists ((|v8:1| Real) )(forall ((|v7:2| Real) )(exists ((|v6:3| Real) )(forall ((|v5:4| Real) )(exists ((|v4:5| Real) )(forall ((|v3:6| Real) )(exists ((|v2:7| Real) )(forall ((|v1:8| Real) )(exists ((|v0:9| Real) )(let ((?x140 (+ (+ (* 13 |v3:6|) (* (- 16) |v6:3|)) (* (- 13) |v3:6|))))
(let ((?x75 (- 13)))
(let ((?x131 (+ (+ (* (- 1) |v3:6|) (* (- 3) |v3:6|)) (* 14 |v3:6|))))
(let ((?x118 (+ (+ (* (- 8) |v4:5|) (* (- 20) |v0:9|)) (* (- 5) |v1:8|))))
(let ((?x109 (+ (+ (* 5 |v8:1|) (* 10 |v3:6|)) (* 18 |v1:8|))))
(let ((?x98 (+ (+ (* 20 |v0:9|) (* (- 5) |v9:0|)) (* (- 12) |v8:1|))))
(let ((?x86 (+ (+ (* 20 |v1:8|) (* 12 |v9:0|)) (* (- 4) |v6:3|))))
(let (($x121 (and (or (<= ?x86 (- 6)) (<= ?x98 0)) (or (<= ?x109 2) (<= ?x118 2)))))
(let ((?x26 12))
(let ((?x77 (+ (+ (* 6 |v7:2|) (* (- 17) |v7:2|)) (* ?x75 |v2:7|))))
(let ((?x63 (+ (+ (* (- 15) |v6:3|) (* 0 |v8:1|)) (* (- 18) |v1:8|))))
(let (($x49 (<= (+ (+ (* 20 |v8:1|) |v5:4|) (* 10 |v8:1|)) 11)))
(let ((?x38 20))
(let ((?x37 (+ (+ (* ?x26 |v8:1|) (* (- 4) |v7:2|)) (* 18 |v9:0|))))
(let (($x80 (and (and (<= ?x37 ?x38) $x49) (and (<= ?x63 (- 20)) (<= ?x77 ?x26)))))
(let ((?x21 (+ (+ (* 9 |v6:3|) (* 13 |v4:5|)) (* 14 |v8:1|))))
(or (<= ?x21 (- 19)) (and (or $x80 $x121) (and (<= ?x131 ?x75) (<= ?x140 7)))))))))))))))))))))
)
)
)
)
)
)
)
)
)
)
(check-sat)
(exit)

